scip_toyeg/bin/scip_toy.lp
\ SCIP STATISTICS
\   Problem name     : SCIP_toy_example
\   Variables        : 2 (0 binary, 0 integer, 0 implicit integer, 2 continuous)
\   Constraints      : 3
Maximize
 Obj: +3 x1 +2 x2
Subject to
 cons1: +1 x1 +1 x2 <= +4
 cons2: +2 x1 +1 x2 <= +5
 cons3: +1 x1 -4 x2 <= -2
Bounds
End
