scip_toyeg/bin/scip_toy
scip_toy.linux.x86_64.gnu.opt.spx2